c This is QMaxSAT 2017 based on 14.07
c This is Glucose 3.0
c This is MiniSat 2.2.0
c WARNING: for repeatability, setting FPU to use double precision
c card = mrwto, comp = 0, pmodel = 0, narr = 18, mct = 127, verb = 0
cr firstCPXsol 0 0 0
c top = 79249421
c |  Number of variables:    41472                                            |
c |  Number of clauses:      5469885                                          |
c |  Weight of hard clauses: 79249421                                         |
c |  Number of soft clauses: 365148                                           |
c |  Number of unit soft clauses: 0                                           |
c |  Maximum Cardinality (by unit): 1689611004   (0           )               |
c last restart ## conflicts  :  0 1359 
o 50742 | cpuTime 0.519243 s
c Sum of weights = 93867278
c A number of soft clauses remained = 20286
c MRWTO encoding for Pseudo-Boolean Constraints
c sizeMax=50742
c No.0 Divisor=16	generated by pow1
c No.1 Divisor=15	generated by pow1
c No.2 Divisor=16	generated by pow1
c No.3 Divisor=16	generated by pow1
c p0= 16	p1= 15	p2= 16	p3= 16	
c number of digits = 5
c linkingVar[0].size = 16, linkingVar[1].size = 15, linkingVar[2].size = 16, linkingVar[3].size = 14, linkingVar[4].size = 1, 
c Pseudo-Boolean Constraints: 756145 variables and 10150195 clauses
c Sum of weights = 93867278
c A number of soft clauses remained = 20286
c MRWTO encoding for Pseudo-Boolean Constraints
c sizeMax=50742
c No.0 Divisor=16	generated by pow1
c No.1 Divisor=15	generated by pow1
c No.2 Divisor=16	generated by pow1
c No.3 Divisor=16	generated by pow1
c p0= 16	p1= 15	p2= 16	p3= 16	
c number of digits = 5
c linkingVar[0].size = 16, linkingVar[1].size = 15, linkingVar[2].size = 16, linkingVar[3].size = 14, linkingVar[4].size = 1, 
c Pseudo-Boolean Constraints: 756145 variables and 10150195 clauses
c Sum of weights = 93867278
c A number of soft clauses remained = 20286
c MRWTO encoding for Pseudo-Boolean Constraints
c sizeMax=50742
c No.0 Divisor=16	generated by pow1
c No.1 Divisor=15	generated by pow1
c No.2 Divisor=16	generated by pow1
c No.3 Divisor=16	generated by pow1
c p0= 16	p1= 15	p2= 16	p3= 16	
c number of digits = 5
c linkingVar[0].size = 16, linkingVar[1].size = 15, linkingVar[2].size = 16, linkingVar[3].size = 14, linkingVar[4].size = 1, 
c Pseudo-Boolean Constraints: 756145 variables and 10150195 clauses
c Sum of weights = 93867278
c A number of soft clauses remained = 20286
c MRWTO encoding for Pseudo-Boolean Constraints
c sizeMax=50742
c No.0 Divisor=16	generated by pow1
c No.1 Divisor=15	generated by pow1
c No.2 Divisor=16	generated by pow1
c No.3 Divisor=16	generated by pow1
c p0= 16	p1= 15	p2= 16	p3= 16	
c number of digits = 5
c linkingVar[0].size = 16, linkingVar[1].size = 15, linkingVar[2].size = 16, linkingVar[3].size = 14, linkingVar[4].size = 1, 
c Pseudo-Boolean Constraints: 756145 variables and 10150195 clauses
c Sum of weights = 93867278
c A number of soft clauses remained = 20286
c MRWTO encoding for Pseudo-Boolean Constraints
c sizeMax=50742
c No.0 Divisor=16	generated by pow1
c No.1 Divisor=15	generated by pow1
c No.2 Divisor=16	generated by pow1
c No.3 Divisor=16	generated by pow1
c p0= 16	p1= 15	p2= 16	p3= 16	
c number of digits = 5
c linkingVar[0].size = 16, linkingVar[1].size = 15, linkingVar[2].size = 16, linkingVar[3].size = 14, linkingVar[4].size = 1, 
c Pseudo-Boolean Constraints: 756145 variables and 10150195 clauses
c Sum of weights = 93867278
c A number of soft clauses remained = 20286
c MRWTO encoding for Pseudo-Boolean Constraints
c sizeMax=50742
c No.0 Divisor=16	generated by pow1
c No.1 Divisor=15	generated by pow1
c No.2 Divisor=16	generated by pow1
c No.3 Divisor=16	generated by pow1
c p0= 16	p1= 15	p2= 16	p3= 16	
c number of digits = 5
c linkingVar[0].size = 16, linkingVar[1].size = 15, linkingVar[2].size = 16, linkingVar[3].size = 14, linkingVar[4].size = 1, 
c Pseudo-Boolean Constraints: 756145 variables and 10150195 clauses
c Sum of weights = 93867278
c A number of soft clauses remained = 20286
c MRWTO encoding for Pseudo-Boolean Constraints
c sizeMax=50742
c No.0 Divisor=16	generated by pow1
c No.1 Divisor=15	generated by pow1
c No.2 Divisor=16	generated by pow1
c No.3 Divisor=16	generated by pow1
c p0= 16	p1= 15	p2= 16	p3= 16	
c number of digits = 5
c linkingVar[0].size = 16, linkingVar[1].size = 15, linkingVar[2].size = 16, linkingVar[3].size = 14, linkingVar[4].size = 1, 
c Pseudo-Boolean Constraints: 756145 variables and 10150195 clauses
c Sum of weights = 93867278
c A number of soft clauses remained = 20286
c MRWTO encoding for Pseudo-Boolean Constraints
c sizeMax=50742
c No.0 Divisor=16	generated by pow1
c No.1 Divisor=15	generated by pow1
c No.2 Divisor=16	generated by pow1
c No.3 Divisor=16	generated by pow1
c p0= 16	p1= 15	p2= 16	p3= 16	
c number of digits = 5
c linkingVar[0].size = 16, linkingVar[1].size = 15, linkingVar[2].size = 16, linkingVar[3].size = 14, linkingVar[4].size = 1, 
c Pseudo-Boolean Constraints: 756145 variables and 10150195 clauses
c Sum of weights = 93867278
c A number of soft clauses remained = 20286
c MRWTO encoding for Pseudo-Boolean Constraints
c sizeMax=50742
c No.0 Divisor=16	generated by pow1
c No.1 Divisor=15	generated by pow1
c No.2 Divisor=16	generated by pow1
c No.3 Divisor=16	generated by pow1
c p0= 16	p1= 15	p2= 16	p3= 16	
c number of digits = 5
c linkingVar[0].size = 16, linkingVar[1].size = 15, linkingVar[2].size = 16, linkingVar[3].size = 14, linkingVar[4].size = 1, 
c Pseudo-Boolean Constraints: 756145 variables and 10150195 clauses
c Sum of weights = 93867278
c A number of soft clauses remained = 20286
c MRWTO encoding for Pseudo-Boolean Constraints
c sizeMax=50742
c No.0 Divisor=16	generated by pow1
c No.1 Divisor=15	generated by pow1
c No.2 Divisor=16	generated by pow1
c No.3 Divisor=16	generated by pow1
c p0= 16	p1= 15	p2= 16	p3= 16	
c number of digits = 5
c linkingVar[0].size = 16, linkingVar[1].size = 15, linkingVar[2].size = 16, linkingVar[3].size = 14, linkingVar[4].size = 1, 
c Pseudo-Boolean Constraints: 756145 variables and 10150195 clauses
c Sum of weights = 93867278
c A number of soft clauses remained = 20286
c MRWTO encoding for Pseudo-Boolean Constraints
c sizeMax=50742
c No.0 Divisor=16	generated by pow1
c No.1 Divisor=15	generated by pow1
c No.2 Divisor=16	generated by pow1
c No.3 Divisor=16	generated by pow1
c p0= 16	p1= 15	p2= 16	p3= 16	
c number of digits = 5
c linkingVar[0].size = 16, linkingVar[1].size = 15, linkingVar[2].size = 16, linkingVar[3].size = 14, linkingVar[4].size = 1, 
c Pseudo-Boolean Constraints: 756145 variables and 10150195 clauses
c Sum of weights = 93867278
c A number of soft clauses remained = 20286
c MRWTO encoding for Pseudo-Boolean Constraints
c sizeMax=50742
c No.0 Divisor=16	generated by pow1
c No.1 Divisor=15	generated by pow1
c No.2 Divisor=16	generated by pow1
c No.3 Divisor=16	generated by pow1
c p0= 16	p1= 15	p2= 16	p3= 16	
c number of digits = 5
c linkingVar[0].size = 16, linkingVar[1].size = 15, linkingVar[2].size = 16, linkingVar[3].size = 14, linkingVar[4].size = 1, 
c Pseudo-Boolean Constraints: 756145 variables and 10150195 clauses
c Sum of weights = 93867278
c A number of soft clauses remained = 20286
c MRWTO encoding for Pseudo-Boolean Constraints
c sizeMax=50742
c No.0 Divisor=16	generated by pow1
c No.1 Divisor=15	generated by pow1
c No.2 Divisor=16	generated by pow1
c No.3 Divisor=16	generated by pow1
c p0= 16	p1= 15	p2= 16	p3= 16	
c number of digits = 5
c linkingVar[0].size = 16, linkingVar[1].size = 15, linkingVar[2].size = 16, linkingVar[3].size = 14, linkingVar[4].size = 1, 
c Pseudo-Boolean Constraints: 756145 variables and 10150195 clauses
c Sum of weights = 93867278
c A number of soft clauses remained = 20286
c MRWTO encoding for Pseudo-Boolean Constraints
c sizeMax=50742
c No.0 Divisor=16	generated by pow1
c No.1 Divisor=15	generated by pow1
c No.2 Divisor=16	generated by pow1
c No.3 Divisor=16	generated by pow1
c p0= 16	p1= 15	p2= 16	p3= 16	
c number of digits = 5
c linkingVar[0].size = 16, linkingVar[1].size = 15, linkingVar[2].size = 16, linkingVar[3].size = 14, linkingVar[4].size = 1, 
c Pseudo-Boolean Constraints: 756145 variables and 10150195 clauses
c Sum of weights = 93867278
c A number of soft clauses remained = 20286
c MRWTO encoding for Pseudo-Boolean Constraints
c sizeMax=50742
c No.0 Divisor=16	generated by pow1
c No.1 Divisor=15	generated by pow1
c No.2 Divisor=16	generated by pow1
c No.3 Divisor=16	generated by pow1
c p0= 16	p1= 15	p2= 16	p3= 16	
c number of digits = 5
c linkingVar[0].size = 16, linkingVar[1].size = 15, linkingVar[2].size = 16, linkingVar[3].size = 14, linkingVar[4].size = 1, 
c Pseudo-Boolean Constraints: 756145 variables and 10150195 clauses
c Sum of weights = 93867278
c A number of soft clauses remained = 20286
c MRWTO encoding for Pseudo-Boolean Constraints
c sizeMax=50742
c No.0 Divisor=16	generated by pow1
c No.1 Divisor=15	generated by pow1
c No.2 Divisor=16	generated by pow1
c No.3 Divisor=16	generated by pow1
c p0= 16	p1= 15	p2= 16	p3= 16	
c number of digits = 5
c linkingVar[0].size = 16, linkingVar[1].size = 15, linkingVar[2].size = 16, linkingVar[3].size = 14, linkingVar[4].size = 1, 
c Pseudo-Boolean Constraints: 756145 variables and 10150195 clauses
c Sum of weights = 93867278
c A number of soft clauses remained = 20286
c MRWTO encoding for Pseudo-Boolean Constraints
c sizeMax=50742
c No.0 Divisor=16	generated by pow1
c No.1 Divisor=15	generated by pow1
c No.2 Divisor=16	generated by pow1
c No.3 Divisor=16	generated by pow1
c p0= 16	p1= 15	p2= 16	p3= 16	
c number of digits = 5
c linkingVar[0].size = 16, linkingVar[1].size = 15, linkingVar[2].size = 16, linkingVar[3].size = 14, linkingVar[4].size = 1, 
c Pseudo-Boolean Constraints: 756145 variables and 10150195 clauses
c Sum of weights = 93867278
c A number of soft clauses remained = 20286
c MRWTO encoding for Pseudo-Boolean Constraints
c sizeMax=50742
c No.0 Divisor=16	generated by pow1
c No.1 Divisor=15	generated by pow1
c No.2 Divisor=16	generated by pow1
c No.3 Divisor=16	generated by pow1
c p0= 16	p1= 15	p2= 16	p3= 16	
c number of digits = 5
c linkingVar[0].size = 16, linkingVar[1].size = 15, linkingVar[2].size = 16, linkingVar[3].size = 14, linkingVar[4].size = 1, 
c Pseudo-Boolean Constraints: 756145 variables and 10150195 clauses
s UNKNOWN
c Search is stopped by a limit (maybe time-limit)
cr positiVarArr: [ | 19(1->2) | 164(1->3) | 309(1->4) | 454(1->5) | 599(1->6) | 744(1->7) | 889(1->8) | 1034(1->9) | 1179(1->10) | 1324(1->11) | 1469(1->12) | 1614(1->13) | 1759(1->14) | 1904(1->15) | 2049(1->16) | 2194(1->17) | 2339(1->18) | 2484(1->19) | 2629(2->20) | 2774(3->21) | 2919(4->22) | 3064(5->23) | 3209(6->24) | 3354(7->25) | 3499(8->26) | 3644(9->27) | 3789(10->28) | 3934(11->29) | 4079(12->30) | 4224(13->31) | 4369(14->32) | 4514(15->33) | 4659(16->34) | 4804(17->35) | 4949(18->36) | 5094(19->37) | 5239(20->38) | 5384(21->39) | 5529(22->40) | 5674(23->41) | 5819(24->42) | 5964(25->43) | 6109(26->44) | 6254(27->45) | 6399(28->46) | 6544(29->47) | 6689(30->48) | 6834(31->49) | 6979(32->50) | 7124(33->51) | 7269(34->52) | 7414(35->53) | 7559(36->54) | 7704(37->55) | 7849(38->56) | 7994(39->57) | 8139(40->58) | 8284(41->59) | 8429(42->60) | 8574(43->61) | 8719(44->62) | 8864(45->63) | 9009(46->64) | 9154(47->65) | 9299(48->66) | 9444(49->67) | 9589(50->68) | 9734(51->69) | 9879(52->70) | 10024(53->71) | 10169(54->72) | 10314(55->73) | 10459(56->74) | 10604(57->75) | 10749(58->76) | 10894(59->77) | 11039(60->78) | 11184(61->79) | 11329(62->80) | 11474(63->81) | 11619(64->82) | 11764(65->83) | 11909(66->84) | 12054(67->85) | 12199(68->86) | 12344(69->87) | 12489(70->88) | 12634(71->89) | 12779(72->90) | 12924(73->91) | 13069(74->92) | 13214(75->93) | 13359(76->94) | 13504(77->95) | 13649(78->96) | 13794(79->97) | 13939(80->98) | 14084(81->99) | 14229(82->100) | 14374(83->101) | 14519(84->102) | 14664(85->103) | 14809(86->104) | 14954(87->105) | 15099(88->106) | 15244(89->107) | 15389(90->108) | 15534(91->109) | 15679(92->110) | 15824(93->111) | 15969(94->112) | 16114(95->113) | 16259(96->114) | 16404(97->115) | 16549(98->116) | 16694(99->117) | 16839(100->118) | 16984(101->119) | 17129(102->120) | 17274(103->121) | 17419(104->122) | 17564(105->123) | 17709(106->124) | 17854(107->125) | 17999(108->126) | 18144(109->127) | 18162(110->1) | 18305(111->1) | 18448(112->1) | 18591(113->1) | 18734(114->1) | 18877(115->1) | 19020(116->1) | 19163(117->1) | 19306(118->1) | 19449(119->1) | 19592(120->1) | 19735(121->1) | 19878(122->1) | 20021(123->1) | 20164(124->1) | 20307(125->1) | 20450(126->1) | 20593(127->1) | ]
cr the 1-th chain: [ 1->2->20->38->56->74->92->110->1 ] (#non-depot=7) {#cumul.=8}
cr the 2-th chain: [ 1->3->21->39->57->75->93->111->1 ] (#non-depot=7) {#cumul.=15}
cr the 3-th chain: [ 1->4->22->40->58->76->94->112->1 ] (#non-depot=7) {#cumul.=22}
cr the 4-th chain: [ 1->5->23->41->59->77->95->113->1 ] (#non-depot=7) {#cumul.=29}
cr the 5-th chain: [ 1->6->24->42->60->78->96->114->1 ] (#non-depot=7) {#cumul.=36}
cr the 6-th chain: [ 1->7->25->43->61->79->97->115->1 ] (#non-depot=7) {#cumul.=43}
cr the 7-th chain: [ 1->8->26->44->62->80->98->116->1 ] (#non-depot=7) {#cumul.=50}
cr the 8-th chain: [ 1->9->27->45->63->81->99->117->1 ] (#non-depot=7) {#cumul.=57}
cr the 9-th chain: [ 1->10->28->46->64->82->100->118->1 ] (#non-depot=7) {#cumul.=64}
cr the 10-th chain: [ 1->11->29->47->65->83->101->119->1 ] (#non-depot=7) {#cumul.=71}
cr the 11-th chain: [ 1->12->30->48->66->84->102->120->1 ] (#non-depot=7) {#cumul.=78}
cr the 12-th chain: [ 1->13->31->49->67->85->103->121->1 ] (#non-depot=7) {#cumul.=85}
cr the 13-th chain: [ 1->14->32->50->68->86->104->122->1 ] (#non-depot=7) {#cumul.=92}
cr the 14-th chain: [ 1->15->33->51->69->87->105->123->1 ] (#non-depot=7) {#cumul.=99}
cr the 15-th chain: [ 1->16->34->52->70->88->106->124->1 ] (#non-depot=7) {#cumul.=106}
cr the 16-th chain: [ 1->17->35->53->71->89->107->125->1 ] (#non-depot=7) {#cumul.=113}
cr the 17-th chain: [ 1->18->36->54->72->90->108->126->1 ] (#non-depot=7) {#cumul.=120}
cr the 18-th chain: [ 1->19->37->55->73->91->109->127->1 ] (#non-depot=7) {#cumul.=127}
c Latest Answer = 0 by 1 loops
c restarts              : 1865
c conflicts             : 281289         (78 /sec)
c decisions             : 92375041       (0.00 % random) (25667 /sec)
c propagations          : 24895990856    (6917557 /sec)
c conflict literals     : 16134542       (8.67 % deleted)
c Memory used           : 13205.00 MB
c CPU time              : 3598.96 s
